Using license file /home/benedond/gurobi.lic
Using gurobi.env file
Set parameter Threads to value 1
Academic license - for non-commercial use only
Changed value of parameter TimeLimit to 300.0
   Prev: inf  Min: 0.0  Max: inf  Default: inf
Gurobi Optimizer version 9.0.1 build v9.0.1rc0 (linux64)
Optimize a model with 1920 rows, 1830 columns and 7288 nonzeros
Model fingerprint: 0x775e2d03
Variable types: 30 continuous, 1800 integer (1800 binary)
Coefficient statistics:
  Matrix range     [1e+00, 4e+02]
  Objective range  [4e+01, 4e+02]
  Bounds range     [1e+00, 1e+00]
  RHS range        [1e+00, 1e+03]
Presolve removed 221 rows and 221 columns
Presolve time: 0.30s
Presolved: 1699 rows, 1609 columns, 6404 nonzeros
Variable types: 30 continuous, 1579 integer (1579 binary)

Root relaxation: objective 1.598000e+03, 615 iterations, 0.01 seconds

    Nodes    |    Current Node    |     Objective Bounds      |     Work
 Expl Unexpl |  Obj  Depth IntInf | Incumbent    BestBd   Gap | It/Node Time

     0     0 1598.00000    0   46          - 1598.00000      -     -    0s
     0     0 1598.00000    0   40          - 1598.00000      -     -    0s
     0     0 1598.00000    0   58          - 1598.00000      -     -    1s
H    0     0                    3291.0000000 1598.00000  51.4%     -    1s
H    0     0                    3068.0000000 1598.00000  47.9%     -    1s
H    0     0                    2907.0000000 1598.00000  45.0%     -    1s
     0     0 1598.00000    0   62 2907.00000 1598.00000  45.0%     -    1s
H    0     0                    2766.0000000 1598.00000  42.2%     -    1s
     0     0 1598.00000    0   61 2766.00000 1598.00000  42.2%     -    1s
     0     0 1598.00000    0   56 2766.00000 1598.00000  42.2%     -    1s
H    0     0                    2634.0000000 1598.00000  39.3%     -    1s
     0     0 1598.00000    0   50 2634.00000 1598.00000  39.3%     -    1s
     0     0 1598.00000    0   59 2634.00000 1598.00000  39.3%     -    1s
     0     0 1598.00000    0   59 2634.00000 1598.00000  39.3%     -    1s
     0     0 1598.00000    0   58 2634.00000 1598.00000  39.3%     -    1s
     0     0 1598.00000    0   52 2634.00000 1598.00000  39.3%     -    1s
     0     2 1598.00000    0   52 2634.00000 1598.00000  39.3%     -    1s
H   54    53                    2344.0000000 1598.00000  31.8%  16.9    1s
H  217   201                    2284.0000000 1598.00000  30.0%   7.2    2s
H  549   429                    2157.0000000 1598.00000  25.9%  13.9    3s
H  591   416                    2119.0000000 1598.00000  24.6%  15.2    3s
H  657   410                    2062.0000000 1598.00000  22.5%  15.2    3s
  1367   563     cutoff   29      2062.00000 1598.00000  22.5%  13.7    5s

Cutting planes:
  Gomory: 2
  Projected implied bound: 3
  Clique: 1
  MIR: 1
  Flow cover: 5
  GUB cover: 1
  Inf proof: 1
  Relax-and-lift: 3

Explored 5787 nodes (83470 simplex iterations) in 8.04 seconds
Thread count was 1 (of 4 available processors)

Solution count 10: 2062 2119 2157 ... 3291

Optimal solution found (tolerance 1.00e-04)
Best objective 2.062000000000e+03, best bound 2.062000000000e+03, gap 0.0000%
